p cnf 12 50 
-4 11 6 0
8 2 3 0
-5 -9 -8 0
5 11 -9 0
-12 -7 11 0
-11 12 10 0
11 5 7 0
1 -12 -10 0
6 5 1 0
-2 -3 -5 0
-4 -3 -1 0
7 1 -5 0
-5 2 -7 0
-5 4 6 0
-5 6 -3 0
-8 -6 4 0
6 -5 -7 0
-5 10 6 0
-3 -6 12 0
-10 3 -8 0
10 -3 12 0
1 2 10 0
12 2 -7 0
-2 8 1 0
10 2 -3 0
8 -9 6 0
-5 -9 3 0
-10 -8 1 0
11 10 12 0
-2 -8 -11 0
6 1 2 0
-3 -11 5 0
8 2 -3 0
-12 -7 -11 0
6 11 9 0
11 4 -10 0
5 -9 8 0
7 -1 -5 0
-3 -8 -1 0
5 -11 1 0
-11 4 8 0
-4 11 10 0
-9 1 11 0
12 -10 -9 0
1 6 -11 0
10 -8 9 0
-6 -12 5 0
-12 -10 1 0
-6 12 9 0
-6 -4 -8 0
